
******************************************************************************
This program contains Ipopt, a library for large-scale nonlinear optimization.
 Ipopt is released as open source code under the Eclipse Public License (EPL).
         For more information visit http://projects.coin-or.org/Ipopt
******************************************************************************

This is Ipopt version 3.12.6, running with linear solver ma57.

Number of nonzeros in equality constraint Jacobian...:        0
Number of nonzeros in inequality constraint Jacobian.:        0
Number of nonzeros in Lagrangian Hessian.............:        3

Total number of variables............................:        2
                     variables with only lower bounds:        1
                variables with lower and upper bounds:        0
                     variables with only upper bounds:        0
Total number of equality constraints.................:        0
Total number of inequality constraints...............:        0
        inequality constraints with only lower bounds:        0
   inequality constraints with lower and upper bounds:        0
        inequality constraints with only upper bounds:        0

iter    objective    inf_pr   inf_du lg(mu)  ||d||  lg(rg) alpha_du alpha_pr  ls
   0  8.2000000e+01 0.00e+00 1.80e+01  -1.0 0.00e+00    -  0.00e+00 0.00e+00   0
   1  9.9998990e-02 0.00e+00 1.00e-06  -1.0 9.90e+00    -  1.00e+00 1.00e+00f  1
   2  2.8285115e-03 0.00e+00 2.83e-08  -2.5 9.72e-02    -  1.00e+00 1.00e+00f  1
   3  1.5041420e-04 0.00e+00 1.50e-09  -3.8 2.68e-03    -  1.00e+00 1.00e+00f  1
   4  1.8349147e-06 0.00e+00 1.84e-11  -5.7 1.49e-04    -  1.00e+00 1.00e+00f  1
   5 -7.4940964e-09 0.00e+00 2.51e-14  -8.6 1.84e-06    -  1.00e+00 1.00e+00f  1

Number of Iterations....: 5

                                   (scaled)                 (unscaled)
Objective...............:  -7.4940964063749669e-09   -7.4940964063749669e-09
Dual infeasibility......:   2.5091040356528538e-14    2.5091040356528538e-14
Constraint violation....:   0.0000000000000000e+00    0.0000000000000000e+00
Complementarity.........:   2.5059035936250962e-09    2.5059035936250962e-09
Overall NLP error.......:   2.5059035936250962e-09    2.5059035936250962e-09


Number of objective function evaluations             = 6
Number of objective gradient evaluations             = 6
Number of equality constraint evaluations            = 0
Number of inequality constraint evaluations          = 0
Number of equality constraint Jacobian evaluations   = 0
Number of inequality constraint Jacobian evaluations = 0
Number of Lagrangian Hessian evaluations             = 5
Total CPU secs in IPOPT (w/o function evaluations)   =      0.000
Total CPU secs in NLP function evaluations           =      0.000

EXIT: Optimal Solution Found.

 ** SUBROUTINE CUTEST_csetup: Warning. The problem has no general constraints. 
 ** Other tools may be preferable ** 

************************ CUTEst statistics ************************


 Package used            :  IPOPT
 Problem                 :  HS3MOD    
 # variables             =               2
 # constraints           =               0
 # objective functions   =        0.1300000E+02
 # objective gradients   =        0.7000000E+01
 # objective Hessians    =        0.6000000E+01
 # Hessian-vector prdct  =        0.0000000E+00
 # constraints functions =        0.0000000E+00
 # constraints gradients =        0.0000000E+00
 # constraints Hessians  =        0.0000000E+00
 Exit code               =               0
 Final f                 =  -0.7494096E-08
 Set up time             =            0.00 seconds
 Solve time              =            0.01 seconds


******************************************************************

System Time =       0.0020000001 s.
